NAME : AA40.1515879.tour
COMMENT : Cost = 0_1515879
COMMENT : Found by LKH [Keld Helsgaun] Sun Apr 23 15:14:35 2017
TYPE : TOUR
DIMENSION : 83
TOUR_SECTION
1
17
57
41
81
15
55
32
12
52
72
37
77
35
75
40
80
14
54
22
62
21
5
45
61
34
74
83
10
50
13
53
11
51
36
76
27
67
19
59
29
69
26
66
20
60
6
46
8
48
3
43
30
70
82
18
58
31
71
25
65
2
42
4
44
24
64
23
63
33
9
49
7
47
73
16
56
39
28
79
68
38
78
-1
EOF
